
Gurobi 13.0.0 (mac64[arm]) logging started Sun Dec  7 08:30:34 2025

Set parameter LogFile to value "/Users/jjung404/PyProjects/qiga/data/steiner-opt/SP/design432_log.txt"
Set parameter OutputFlag to value 1
Gurobi Optimizer version 13.0.0 build v13.0.0rc1 (mac64[arm] - Darwin 24.6.0 24G325)

CPU model: Apple M3
Thread count: 8 physical cores, 8 logical processors, using up to 8 threads

Optimize a model with 52 rows, 60 columns and 180 nonzeros (Min)
Model fingerprint: 0x5b72c518
Model has 20 linear objective coefficients
Variable types: 40 continuous, 20 integer (20 binary)
Coefficient statistics:
  Matrix range     [1e+00, 3e+00]
  Objective range  [1e+00, 3e+00]
  Bounds range     [1e+00, 1e+00]
  RHS range        [1e+00, 3e+00]
Found heuristic solution: objective 9.0000000
Presolve time: 0.00s
Presolved: 52 rows, 60 columns, 180 nonzeros
Variable types: 40 continuous, 20 integer (20 binary)

Root relaxation: objective 6.000000e+00, 7 iterations, 0.00 seconds (0.00 work units)

    Nodes    |    Current Node    |     Objective Bounds      |     Work
 Expl Unexpl |  Obj  Depth IntInf | Incumbent    BestBd   Gap | It/Node Time

     0     0    6.00000    0    4    9.00000    6.00000  33.3%     -    0s
     0     0    6.00000    0    4    9.00000    6.00000  33.3%     -    0s
     0     0    8.00000    0    7    9.00000    8.00000  11.1%     -    0s
     0     0    8.00000    0    7    9.00000    8.00000  11.1%     -    0s
     0     0    8.00000    0    7    9.00000    8.00000  11.1%     -    0s
     0     0    8.00000    0    8    9.00000    8.00000  11.1%     -    0s
     0     0    9.00000    0    7    9.00000    9.00000  0.00%     -    0s

Cutting planes:
  MIR: 9
  Flow cover: 4
  Flow path: 1

Explored 1 nodes (50 simplex iterations) in 0.00 seconds (0.00 work units)
Thread count was 8 (of 8 available processors)

Solution count 1: 9 

Optimal solution found (tolerance 1.00e-04)
Best objective 9.000000000000e+00, best bound 9.000000000000e+00, gap 0.0000%
